p wcnf 120 1300
8 -115 -119 0
9 -114 116 0
2 -111 112 0
2 -111 119 0
5 -110 -116 0
6 -107 -112 0
4 -107 112 0
2 -107 114 0
3 -106 114 0
4 -105 -112 0
2 -101 -115 0
5 -100 -113 0
4 -100 109 0
7 -99 -100 0
6 -99 106 0
7 -99 118 0
2 -98 -111 0
8 -98 114 0
2 -97 -116 0
6 -96 -120 0
10 -96 98 0
7 -96 105 0
9 -95 -111 0
5 -95 -105 0
5 -94 -102 0
5 -94 110 0
6 -94 115 0
5 -93 -118 0
4 -93 -106 0
10 -93 -96 0
3 -93 99 0
2 -93 104 0
9 -92 -117 0
4 -92 105 0
3 -90 -106 0
4 -90 -99 0
9 -90 -92 0
6 -90 109 0
5 -89 99 0
2 -89 119 0
9 -88 -102 0
6 -88 117 0
6 -87 -117 0
3 -87 -103 0
3 -87 -100 0
3 -86 89 0
8 -86 95 0
4 -86 98 0
10 -86 104 0
9 -85 -95 0
9 -85 90 0
9 -85 101 0
6 -84 -119 0
7 -84 -85 0
5 -82 -119 0
1 -82 -118 0
3 -82 -106 0
10 -81 -102 0
5 -81 109 0
6 -81 117 0
9 -80 -112 0
6 -80 -109 0
7 -80 81 0
8 -79 -113 0
9 -79 -99 0
9 -79 81 0
2 -78 101 0
8 -78 114 0
5 -77 -118 0
6 -77 -93 0
9 -77 -87 0
5 -77 -80 0
2 -77 100 0
5 -77 110 0
6 -76 -113 0
3 -76 84 0
7 -76 94 0
4 -76 106 0
6 -75 -116 0
6 -75 -100 0
3 -75 -94 0
5 -75 -91 0
6 -75 -90 0
8 -75 87 0
2 -75 90 0
9 -75 92 0
9 -74 -78 0
4 -74 79 0
9 -74 95 0
3 -74 120 0
8 -73 -120 0
8 -73 -109 0
9 -73 -93 0
5 -73 85 0
7 -73 114 0
8 -72 98 0
4 -72 105 0
8 -72 117 0
6 -71 -104 0
8 -71 -76 0
4 -71 94 0
4 -71 99 0
3 -70 -109 0
5 -70 -78 0
8 -70 105 0
8 -69 -104 0
7 -69 -80 0
5 -69 97 0
3 -68 -86 0
3 -68 73 0
1 -68 86 0
5 -68 120 0
6 -67 -118 0
6 -67 -107 0
3 -67 -101 0
7 -67 -88 0
5 -67 90 0
2 -67 94 0
1 -67 102 0
4 -67 112 0
4 -66 -115 0
9 -66 -112 0
2 -66 -91 0
3 -66 -67 0
4 -66 90 0
8 -65 -111 0
10 -65 -92 0
7 -65 -72 0
6 -65 67 0
5 -65 71 0
5 -64 -111 0
9 -64 -90 0
9 -64 -86 0
7 -64 110 0
4 -64 113 0
7 -64 115 0
5 -63 -105 0
9 -63 -102 0
2 -63 -95 0
7 -63 -93 0
2 -63 65 0
2 -62 -120 0
2 -62 -98 0
8 -62 -97 0
7 -62 -96 0
4 -62 -89 0
5 -62 -68 0
2 -62 69 0
5 -61 -117 0
5 -61 -107 0
5 -61 -84 0
9 -61 -72 0
4 -61 -65 0
6 -61 68 0
1 -61 80 0
7 -61 107 0
4 -60 -106 0
10 -60 82 0
4 -60 86 0
9 -60 96 0
5 -60 104 0
8 -59 -88 0
8 -59 -87 0
4 -59 -78 0
5 -59 -77 0
2 -59 -62 0
10 -59 65 0
9 -59 106 0
1 -59 110 0
2 -59 116 0
6 -59 117 0
2 -58 -106 0
3 -58 -72 0
7 -58 -68 0
9 -58 62 0
9 -58 68 0
1 -58 101 0
4 -58 108 0
1 -57 -105 0
6 -57 -73 0
8 -57 60 0
5 -57 61 0
4 -57 62 0
2 -57 107 0
1 -56 -100 0
5 -56 -65 0
8 -56 -58 0
5 -56 59 0
5 -56 60 0
2 -56 93 0
4 -56 98 0
9 -56 100 0
9 -56 102 0
2 -56 103 0
3 -56 107 0
4 -56 109 0
3 -55 -110 0
2 -55 -86 0
3 -55 70 0
3 -55 94 0
3 -54 60 0
8 -54 77 0
5 -54 94 0
5 -54 95 0
5 -54 99 0
4 -54 113 0
4 -53 -58 0
6 -53 54 0
7 -53 60 0
4 -53 77 0
1 -53 85 0
5 -52 -115 0
8 -52 -88 0
4 -52 103 0
6 -51 -120 0
9 -51 -115 0
8 -51 -53 0
5 -51 100 0
3 -51 103 0
3 -51 106 0
6 -51 118 0
6 -51 120 0
2 -50 -117 0
5 -50 -116 0
8 -50 -112 0
3 -50 -65 0
7 -50 51 0
10 -50 64 0
4 -50 73 0
9 -50 76 0
3 -50 80 0
6 -50 110 0
8 -50 116 0
7 -49 -98 0
2 -49 -57 0
3 -49 70 0
10 -49 84 0
5 -48 -85 0
7 -48 -84 0
6 -48 -81 0
8 -48 -71 0
7 -48 72 0
1 -48 76 0
7 -48 113 0
2 -47 -118 0
7 -47 -103 0
6 -47 -96 0
9 -47 -57 0
1 -47 -49 0
8 -47 70 0
2 -47 73 0
6 -47 116 0
4 -46 -115 0
2 -46 -110 0
10 -46 -106 0
2 -46 -84 0
4 -46 74 0
7 -46 83 0
2 -46 116 0
8 -46 117 0
7 -45 -81 0
4 -45 -79 0
4 -45 -66 0
4 -45 -62 0
1 -45 -59 0
5 -44 -82 0
6 -44 65 0
10 -44 98 0
9 -44 108 0
3 -43 -63 0
6 -43 75 0
7 -43 84 0
9 -43 114 0
6 -42 -116 0
4 -42 -88 0
1 -42 -77 0
3 -42 45 0
8 -42 49 0
9 -42 77 0
3 -42 91 0
6 -42 100 0
10 -41 -98 0
8 -41 -92 0
10 -41 -90 0
2 -41 101 0
8 -40 -110 0
2 -40 -91 0
5 -40 -81 0
5 -40 -77 0
3 -40 -61 0
3 -40 -41 0
2 -40 41 0
6 -40 60 0
6 -40 78 0
5 -40 95 0
6 -40 112 0
10 -40 114 0
1 -39 -63 0
6 -39 66 0
8 -39 69 0
3 -39 85 0
2 -39 86 0
5 -39 89 0
3 -39 92 0
7 -38 -96 0
8 -38 -69 0
3 -38 -55 0
9 -38 -42 0
6 -38 66 0
2 -38 101 0
2 -37 -117 0
2 -37 -62 0
2 -37 49 0
9 -37 85 0
2 -37 117 0
3 -36 -117 0
7 -36 -97 0
3 -36 -96 0
7 -36 -89 0
2 -36 59 0
5 -36 62 0
9 -36 90 0
4 -35 -61 0
10 -35 -57 0
5 -35 60 0
8 -35 86 0
6 -34 -113 0
4 -34 -87 0
8 -34 -85 0
2 -34 -57 0
3 -34 47 0
1 -34 48 0
2 -34 72 0
7 -34 119 0
3 -33 -81 0
8 -33 -57 0
5 -33 37 0
5 -33 43 0
7 -33 62 0
10 -33 66 0
7 -33 79 0
8 -33 83 0
2 -33 91 0
8 -33 114 0
7 -32 -84 0
3 -32 -81 0
1 -32 -79 0
4 -32 -74 0
5 -32 -69 0
8 -32 -50 0
6 -32 -47 0
9 -32 -40 0
7 -32 44 0
8 -32 50 0
9 -32 61 0
2 -32 82 0
6 -32 117 0
4 -31 -90 0
5 -31 -76 0
4 -31 -63 0
5 -31 -61 0
7 -31 -36 0
5 -31 -33 0
7 -31 115 0
4 -30 -118 0
7 -30 -109 0
5 -30 -104 0
7 -30 -90 0
2 -30 -88 0
2 -30 -56 0
7 -30 -39 0
8 -30 -35 0
9 -30 -32 0
8 -30 31 0
6 -30 49 0
7 -30 52 0
1 -30 53 0
6 -30 68 0
1 -29 -105 0
5 -29 -52 0
4 -29 101 0
6 -29 114 0
4 -28 -103 0
10 -28 -94 0
4 -28 -84 0
3 -28 -39 0
1 -27 38 0
10 -27 49 0
6 -27 108 0
6 -26 -114 0
4 -26 -73 0
1 -26 -53 0
3 -26 -49 0
8 -26 -47 0
7 -26 -32 0
5 -26 37 0
5 -26 55 0
2 -26 71 0
2 -26 86 0
6 -25 -70 0
3 -25 -61 0
8 -25 -51 0
4 -25 -48 0
3 -25 33 0
6 -25 53 0
9 -25 97 0
8 -24 -95 0
6 -24 -79 0
5 -24 -70 0
8 -24 -50 0
1 -24 -38 0
8 -24 27 0
4 -24 43 0
4 -24 52 0
8 -24 55 0
8 -24 63 0
6 -24 98 0
8 -23 -98 0
7 -23 -39 0
2 -23 41 0
4 -23 46 0
1 -23 96 0
3 -22 -102 0
6 -22 -95 0
8 -22 -83 0
9 -22 -71 0
10 -22 -64 0
3 -22 -52 0
10 -22 37 0
2 -22 84 0
8 -22 86 0
3 -22 115 0
9 -21 -79 0
2 -21 27 0
5 -21 39 0
5 -21 48 0
10 -20 -79 0
3 -20 -49 0
10 -20 25 0
5 -20 26 0
1 -20 37 0
1 -20 60 0
3 -19 -92 0
5 -19 -85 0
4 -19 -69 0
1 -19 -35 0
2 -19 46 0
9 -19 99 0
8 -19 107 0
9 -19 117 0
1 -18 -119 0
2 -18 -117 0
9 -18 -94 0
3 -18 -91 0
7 -18 -78 0
7 -18 -69 0
2 -18 26 0
7 -18 27 0
8 -18 31 0
1 -18 45 0
7 -18 46 0
6 -18 55 0
3 -18 81 0
6 -18 117 0
7 -17 -48 0
7 -17 -45 0
1 -17 -20 0
6 -17 20 0
9 -17 31 0
10 -16 -116 0
2 -16 -115 0
10 -16 -104 0
10 -16 -96 0
4 -16 -56 0
5 -16 -42 0
4 -16 -35 0
4 -16 -31 0
6 -16 96 0
3 -16 120 0
2 -15 -114 0
4 -15 -48 0
4 -15 -24 0
4 -15 21 0
3 -15 70 0
6 -15 90 0
10 -14 -68 0
9 -14 -56 0
7 -14 -50 0
6 -14 -29 0
8 -14 31 0
7 -14 72 0
4 -14 79 0
4 -14 95 0
9 -14 112 0
9 -13 -118 0
9 -13 -68 0
6 -13 -57 0
9 -13 -23 0
6 -13 -22 0
6 -13 14 0
9 -13 35 0
6 -13 41 0
5 -13 43 0
9 -13 54 0
9 -13 113 0
9 -12 -105 0
3 -12 -92 0
3 -12 -61 0
5 -12 -42 0
6 -12 -15 0
4 -12 43 0
8 -12 57 0
9 -12 64 0
7 -12 109 0
2 -11 -114 0
5 -11 -112 0
7 -11 -90 0
10 -11 -86 0
1 -11 -76 0
3 -11 -50 0
7 -11 -46 0
7 -11 -33 0
6 -11 -30 0
10 -11 -18 0
6 -11 55 0
5 -11 62 0
9 -11 65 0
3 -11 85 0
5 -11 112 0
5 -10 -109 0
7 -10 -103 0
4 -10 -94 0
1 -10 -84 0
2 -10 -78 0
3 -10 -68 0
9 -10 -56 0
1 -10 11 0
5 -10 13 0
2 -10 33 0
5 -9 -115 0
1 -9 -59 0
6 -9 37 0
4 -9 89 0
9 -9 91 0
3 -8 -103 0
4 -8 -88 0
4 -8 -79 0
9 -8 -10 0
4 -8 29 0
4 -8 70 0
2 -7 -104 0
1 -7 -88 0
10 -7 -69 0
7 -7 -39 0
1 -7 -34 0
6 -7 -29 0
2 -7 10 0
10 -7 32 0
8 -7 79 0
6 -7 96 0
5 -7 98 0
5 -6 -80 0
9 -6 -66 0
5 -6 -62 0
6 -6 -59 0
2 -6 -43 0
5 -6 -42 0
7 -6 -25 0
6 -6 -12 0
6 -6 13 0
2 -6 31 0
6 -6 36 0
2 -6 65 0
4 -6 74 0
5 -6 77 0
4 -6 109 0
8 -6 120 0
7 -5 -104 0
3 -5 -101 0
2 -5 -96 0
1 -5 -85 0
4 -5 -82 0
2 -5 -68 0
1 -5 -65 0
10 -5 -60 0
2 -5 25 0
6 -5 27 0
2 -5 42 0
2 -5 66 0
4 -5 94 0
7 -5 99 0
5 -5 108 0
8 -4 -102 0
6 -4 -71 0
9 -4 -70 0
4 -4 -39 0
6 -4 6 0
4 -4 26 0
10 -4 28 0
2 -4 37 0
9 -4 52 0
2 -4 69 0
7 -4 94 0
10 -4 102 0
5 -3 -96 0
2 -3 -87 0
4 -3 -45 0
3 -3 -4 0
8 -3 65 0
5 -3 113 0
3 -2 -89 0
9 -2 -55 0
8 -2 -52 0
4 -2 -35 0
9 -2 14 0
7 -2 17 0
5 -2 37 0
5 -2 61 0
8 -2 81 0
6 -2 85 0
8 -2 89 0
5 -1 -60 0
1 -1 -56 0
6 -1 -50 0
10 -1 -25 0
10 -1 -18 0
9 -1 10 0
6 -1 67 0
4 -1 72 0
9 -1 74 0
7 -1 100 0
2 -1 107 0
1 -1 109 0
4 -1 119 0
2 1 -17 0
5 1 -9 0
5 1 28 0
5 1 55 0
7 1 80 0
4 1 113 0
9 1 114 0
10 2 -95 0
2 2 -88 0
7 2 -86 0
4 2 -30 0
1 2 -26 0
4 2 -24 0
8 2 -22 0
5 2 -19 0
3 2 -10 0
4 2 27 0
4 2 63 0
7 3 -99 0
4 3 -86 0
9 3 -57 0
7 3 -52 0
4 3 -31 0
8 3 -8 0
3 3 19 0
6 3 36 0
8 3 44 0
9 3 60 0
8 3 65 0
8 3 114 0
3 4 -92 0
9 4 -88 0
4 4 -80 0
8 4 -57 0
4 4 -56 0
10 4 -34 0
1 4 -29 0
3 4 -10 0
10 4 -9 0
3 4 21 0
9 4 38 0
3 4 45 0
3 4 62 0
3 4 68 0
2 5 -93 0
7 5 -82 0
4 5 -39 0
5 5 -38 0
1 5 -24 0
1 5 -23 0
8 5 -21 0
9 5 -10 0
7 5 22 0
2 5 28 0
7 5 34 0
9 5 102 0
7 5 115 0
5 5 119 0
8 5 120 0
5 6 -104 0
3 6 -66 0
2 6 -53 0
4 6 -16 0
6 6 -15 0
8 6 9 0
7 6 38 0
6 6 51 0
9 6 52 0
9 6 71 0
5 6 74 0
1 7 -109 0
7 7 -76 0
8 7 -63 0
3 7 -48 0
9 7 -31 0
8 7 69 0
9 7 75 0
3 7 101 0
3 8 -100 0
9 8 -79 0
4 8 -65 0
10 8 -41 0
8 8 -35 0
10 8 -31 0
2 8 -23 0
6 8 58 0
9 8 67 0
8 8 92 0
1 8 105 0
7 9 -112 0
3 9 -35 0
3 9 -29 0
8 9 -26 0
6 9 14 0
8 9 18 0
6 9 54 0
3 10 -78 0
4 10 -72 0
5 10 -27 0
2 10 12 0
8 10 26 0
5 10 37 0
8 10 39 0
6 10 51 0
7 10 52 0
7 10 65 0
4 10 78 0
6 10 114 0
10 11 -68 0
7 11 30 0
6 11 33 0
4 11 36 0
7 11 49 0
4 11 56 0
3 11 65 0
7 11 74 0
9 12 -117 0
2 12 -54 0
5 12 -43 0
9 12 -40 0
8 12 -35 0
7 12 33 0
3 12 46 0
6 12 77 0
3 12 80 0
10 12 84 0
1 12 88 0
6 13 -116 0
4 13 -111 0
5 13 -97 0
7 13 -91 0
2 13 -90 0
9 13 -78 0
5 13 -72 0
7 13 -54 0
6 13 -53 0
2 13 -48 0
2 13 -27 0
2 13 -17 0
2 13 24 0
7 13 47 0
7 13 82 0
5 13 92 0
4 13 103 0
1 13 120 0
7 14 -104 0
1 14 -89 0
9 14 -85 0
8 14 -62 0
5 14 -54 0
9 14 29 0
6 14 41 0
3 14 49 0
1 14 52 0
2 14 87 0
5 14 92 0
1 14 94 0
2 14 111 0
10 15 -105 0
4 15 -100 0
6 15 -62 0
6 15 -52 0
5 15 32 0
5 15 93 0
2 15 106 0
2 16 -87 0
9 16 -79 0
3 16 -70 0
3 16 -59 0
2 16 -47 0
4 16 -20 0
9 16 39 0
8 16 41 0
8 16 74 0
3 16 76 0
8 16 119 0
5 17 -110 0
3 17 -74 0
7 17 -34 0
3 17 27 0
7 17 80 0
6 18 -115 0
8 18 -114 0
9 18 -104 0
6 18 -49 0
9 18 -39 0
4 18 -35 0
6 18 52 0
1 18 55 0
4 18 77 0
9 18 82 0
6 18 91 0
10 19 -67 0
4 19 -40 0
10 19 -25 0
1 19 -22 0
5 19 22 0
9 19 46 0
3 19 60 0
6 19 84 0
10 20 -98 0
6 20 -91 0
5 20 -54 0
7 20 -52 0
4 20 -32 0
7 20 -28 0
5 20 37 0
8 20 64 0
9 20 80 0
2 20 91 0
2 21 -114 0
6 21 -84 0
7 21 -74 0
9 21 -73 0
5 21 31 0
3 21 44 0
8 21 54 0
8 21 66 0
8 21 94 0
8 21 98 0
2 21 101 0
7 21 105 0
4 21 114 0
1 22 -117 0
9 22 -112 0
3 22 -84 0
1 22 -64 0
4 22 -54 0
2 22 92 0
3 22 95 0
9 23 -105 0
2 23 25 0
9 23 29 0
5 23 32 0
8 23 119 0
3 24 -110 0
2 24 -91 0
3 24 -68 0
1 24 -41 0
9 24 30 0
4 24 60 0
2 24 105 0
5 24 108 0
1 24 119 0
10 25 -114 0
9 25 -98 0
3 25 -91 0
8 25 -86 0
7 25 -73 0
10 25 -41 0
6 25 -26 0
8 25 37 0
6 25 52 0
9 25 70 0
8 25 112 0
6 25 114 0
2 26 -112 0
9 26 -106 0
9 26 -86 0
4 26 -75 0
2 26 -68 0
8 26 -49 0
5 26 52 0
10 26 96 0
3 26 113 0
3 27 -103 0
3 27 -85 0
3 27 -79 0
5 27 -57 0
3 27 -38 0
3 27 40 0
8 27 45 0
4 27 60 0
6 27 88 0
8 27 107 0
4 27 111 0
5 27 116 0
1 28 -83 0
2 28 -68 0
2 28 -36 0
10 28 86 0
7 29 -94 0
9 29 -64 0
6 29 -48 0
6 29 32 0
7 29 62 0
2 29 88 0
7 29 99 0
5 30 -106 0
9 30 -55 0
1 30 -47 0
6 30 -41 0
8 30 -32 0
5 30 36 0
6 30 77 0
9 30 96 0
7 30 115 0
8 30 119 0
3 31 -115 0
2 31 -107 0
10 31 -41 0
4 31 -39 0
10 32 -117 0
4 32 -89 0
10 32 -69 0
8 32 -64 0
7 32 -47 0
5 32 56 0
8 32 68 0
8 32 76 0
6 32 91 0
8 32 94 0
4 32 115 0
5 33 -92 0
4 33 -67 0
9 33 48 0
1 33 50 0
5 33 86 0
7 33 96 0
6 33 102 0
4 33 104 0
7 34 -119 0
2 34 -115 0
2 34 -108 0
2 34 -87 0
7 34 -76 0
1 34 -48 0
8 34 -41 0
5 34 41 0
3 34 77 0
10 34 78 0
5 35 -115 0
6 35 -93 0
9 35 -73 0
8 35 -68 0
6 35 55 0
7 35 60 0
5 35 68 0
10 35 103 0
5 35 117 0
2 36 -105 0
6 36 -103 0
3 36 -101 0
6 36 -97 0
9 36 -81 0
6 36 -65 0
5 36 -47 0
10 36 -38 0
10 36 68 0
2 36 69 0
5 37 -62 0
4 37 43 0
8 37 45 0
7 37 83 0
5 37 84 0
9 38 -115 0
4 38 -105 0
6 38 -101 0
7 38 -40 0
8 39 -119 0
8 39 -116 0
6 39 -108 0
3 39 -106 0
4 39 -68 0
6 39 -53 0
1 39 41 0
9 39 48 0
2 39 60 0
5 39 65 0
9 39 85 0
6 39 90 0
6 39 96 0
4 39 105 0
8 40 -109 0
1 40 -89 0
4 40 -88 0
5 40 -64 0
5 40 72 0
3 40 86 0
5 41 -118 0
6 41 -94 0
8 41 108 0
8 42 -117 0
4 42 -79 0
4 42 -72 0
3 42 -63 0
2 42 70 0
7 42 107 0
8 43 -114 0
8 43 -108 0
5 43 -101 0
5 43 -81 0
5 43 -78 0
8 43 -52 0
8 43 69 0
9 43 76 0
8 43 99 0
7 44 -118 0
2 44 -51 0
2 44 -50 0
5 44 48 0
7 44 54 0
7 44 56 0
9 44 74 0
5 44 81 0
8 45 -61 0
2 45 48 0
9 45 62 0
3 45 77 0
5 46 -93 0
3 46 -47 0
8 46 64 0
3 46 94 0
1 46 98 0
2 46 102 0
6 47 -75 0
3 47 -70 0
3 47 -60 0
3 47 -54 0
1 47 57 0
1 47 72 0
8 47 101 0
5 48 -100 0
5 48 -99 0
5 48 -91 0
3 48 -75 0
4 48 58 0
3 48 65 0
9 48 77 0
5 48 95 0
4 48 120 0
4 49 -98 0
2 49 -88 0
1 49 -77 0
3 49 -55 0
6 49 56 0
8 49 57 0
4 49 65 0
5 49 73 0
10 49 77 0
8 49 94 0
8 49 120 0
8 50 -117 0
10 50 -93 0
8 50 -83 0
9 50 -51 0
6 50 71 0
1 50 81 0
2 50 82 0
8 50 90 0
2 50 109 0
2 51 -115 0
5 51 -113 0
6 51 -109 0
6 51 -108 0
9 51 -104 0
8 51 -97 0
9 51 -94 0
2 51 64 0
7 51 117 0
3 52 -84 0
5 52 59 0
2 52 63 0
4 52 76 0
6 52 104 0
4 53 -56 0
9 53 91 0
4 53 92 0
7 54 -115 0
4 54 -92 0
4 54 -84 0
5 54 -81 0
2 54 -61 0
2 54 55 0
5 54 65 0
9 55 -100 0
9 55 -94 0
9 55 60 0
9 55 61 0
1 55 85 0
7 55 92 0
9 55 94 0
2 55 112 0
2 55 114 0
5 56 -110 0
7 56 72 0
2 56 79 0
4 56 97 0
6 56 103 0
3 57 -80 0
1 57 58 0
9 57 64 0
8 57 65 0
2 57 91 0
3 58 -116 0
3 58 -107 0
5 58 67 0
2 58 73 0
6 58 89 0
2 58 91 0
5 58 105 0
8 59 -90 0
6 59 -78 0
6 59 -66 0
9 59 63 0
10 59 69 0
4 59 74 0
8 59 102 0
9 60 -119 0
3 60 -109 0
9 60 -106 0
6 60 -89 0
3 60 114 0
10 61 -103 0
7 61 -80 0
7 61 -68 0
7 61 66 0
8 61 85 0
10 61 92 0
3 61 94 0
2 61 114 0
1 62 -120 0
2 62 -109 0
8 62 -98 0
2 62 -97 0
3 62 102 0
1 63 -91 0
6 63 -75 0
4 63 68 0
6 63 75 0
7 63 80 0
8 63 97 0
5 63 105 0
3 64 -89 0
4 64 -82 0
4 64 91 0
2 65 -101 0
7 65 -91 0
2 65 -89 0
1 65 68 0
9 65 89 0
9 65 102 0
6 66 -109 0
2 66 -108 0
9 66 -105 0
4 66 -103 0
8 66 -70 0
6 66 98 0
2 67 -88 0
8 67 -85 0
9 67 -83 0
2 67 88 0
8 67 101 0
9 68 -88 0
10 68 -79 0
9 68 85 0
3 68 111 0
10 69 -117 0
5 69 -115 0
6 69 -110 0
6 69 -93 0
2 69 -79 0
4 69 82 0
10 69 85 0
3 69 95 0
7 70 93 0
3 71 -85 0
5 71 114 0
4 71 115 0
4 72 -80 0
5 72 86 0
4 72 111 0
4 73 -102 0
10 73 -94 0
5 73 -90 0
3 73 113 0
3 74 -110 0
3 74 -107 0
8 74 -102 0
4 74 -91 0
1 74 -81 0
7 74 -79 0
6 74 80 0
8 74 109 0
6 75 -88 0
5 75 113 0
8 76 104 0
8 76 114 0
5 77 -98 0
3 77 83 0
4 77 98 0
1 77 108 0
4 78 -119 0
7 78 -110 0
10 78 -91 0
6 78 -87 0
4 78 -80 0
3 78 80 0
9 78 84 0
7 80 -105 0
6 81 -96 0
4 81 97 0
10 81 110 0
9 82 -103 0
4 82 101 0
5 82 120 0
2 83 -111 0
6 83 97 0
7 83 109 0
9 83 113 0
9 84 -114 0
7 84 90 0
6 85 -110 0
5 85 -109 0
5 86 -114 0
2 87 -120 0
9 87 -109 0
3 88 -120 0
9 88 -100 0
4 88 -94 0
5 88 -92 0
3 88 89 0
4 88 105 0
7 88 120 0
10 89 -105 0
4 89 -101 0
3 89 99 0
4 90 -116 0
6 90 -111 0
3 90 92 0
1 90 105 0
2 91 -112 0
6 91 119 0
1 92 -117 0
1 93 -96 0
8 93 99 0
5 94 -102 0
2 94 99 0
4 94 114 0
1 94 120 0
10 95 -111 0
4 95 -105 0
7 95 114 0
6 96 -111 0
7 96 104 0
2 97 105 0
7 97 107 0
6 97 117 0
4 98 -114 0
7 98 -110 0
9 98 117 0
8 99 -108 0
9 99 101 0
3 99 108 0
5 101 -116 0
9 101 112 0
5 102 -118 0
8 102 104 0
3 102 110 0
1 104 -109 0
9 104 118 0
3 106 116 0
2 110 115 0
5 112 -117 0
3 112 -116 0
3 113 118 0
